Route #1: 26 12 72 10 31 25 55 18 50 9 39 40
Route #2: 58 38 65 66 11 59 14 53 7
Route #3: 46 8 35 19 54 13 57 15 27 52 34 67
Route #4: 4 45 29 5 37 20 70 60 71 69 36 47 48
Route #5: 30 21 61 22 73 1 43 42 64 41 56 23 63
Route #6: 2 74 28 62 33 16 49 24 3 44 32
Route #7: 17 51 6 68 75
Cost 715